
Gurobi 6.0.4 (win64) logging started 06/12/15 17:24:40

Read LP format model from file E:\Eigene Dateien\Downloads\Michi shit\VRPTWMS-master\VRPTWMS\instances\mip\fuel\N8-C_DV100-C_SV25_F5_5_No_1.lp
Reading time = 0.00 seconds
(null): 417 rows, 208 columns, 1715 nonzeros
Optimize a model with 417 rows, 208 columns and 1715 nonzeros
Model has 576 quadratic constraints
WARNING: Only barrier available for SOCP models
Coefficient statistics:
  Matrix range    [1e+00, 1e+02]
  Objective range [9e+00, 1e+03]
  Bounds range    [1e+00, 1e+02]
  RHS range       [1e+00, 1e+02]
Presolve removed 53 rows and 34 columns
Presolve time: 0.03s
Presolved: 1184 rows, 603 columns, 5882 nonzeros
Variable types: 391 continuous, 212 integer (170 binary)
Optimize a model with 1184 rows, 603 columns and 5882 nonzeros
Coefficient statistics:
  Matrix range    [1e+00, 1e+02]
  Objective range [9e+00, 1e+03]
  Bounds range    [1e+00, 1e+02]
  RHS range       [1e+00, 1e+02]

Concurrent LP optimizer: dual simplex and barrier
Showing barrier log only...

Presolve removed 132 rows and 84 columns
Presolved: 1052 rows, 521 columns, 5309 nonzeros

Root barrier log...

Ordering time: 0.02s

Barrier performed 0 iterations in 0.05 seconds
Barrier solve interrupted - model solved by another algorithm


Solved with dual simplex
Solved in 59 iterations and 0.05 seconds
Optimal objective  1.197398548e+03

Root relaxation: objective 1.197399e+03, 59 iterations, 0.02 seconds

    Nodes    |    Current Node    |     Objective Bounds      |     Work
 Expl Unexpl |  Obj  Depth IntInf | Incumbent    BestBd   Gap | It/Node Time

     0     0 1197.39855    0   15          - 1197.39855      -     -    0s
     0     0 1220.36076    0   39          - 1220.36076      -     -    0s
     0     0 1316.52833    0   57          - 1316.52833      -     -    0s
     0     0 1502.17089    0   58          - 1502.17089      -     -    0s
     0     0 1505.55863    0   52          - 1505.55863      -     -    0s
     0     0 1565.30667    0   39          - 1565.30667      -     -    0s
     0     0 1565.30667    0   38          - 1565.30667      -     -    0s
H    0     0                    6358.5300000 1565.30667  75.4%     -    0s
     0     0 1565.30667    0   38 6358.53000 1565.30667  75.4%     -    0s
H    0     0                    4323.5900000 1565.30667  63.8%     -    0s
     0     2 1565.30667    0   33 4323.59000 1565.30667  63.8%     -    0s
H   27    24                    4308.8200000 1596.60667  62.9%  13.5    0s
*  120    91              24    4308.1500000 2189.59500  49.2%  18.0    0s
*  452   234              40    3371.8900000 2217.89332  34.2%  21.5    0s
H  492   247                    3336.3900000 2218.83640  33.5%  21.2    0s
H  843   351                    3335.0800000 2228.74247  33.2%  22.0    0s
H  972   381                    3330.1000000 2238.87173  32.8%  22.4    0s
H 1263   405                    3309.2400000 2246.20000  32.1%  23.8    0s
H 5958   427                    3298.0700000 2472.13443  25.0%  23.2    1s
H 7779    73                    3292.7900000 3191.56332  3.07%  21.9    2s

Cutting planes:
  Learned: 1
  Gomory: 3
  Cover: 304
  Implied bound: 283
  Clique: 5
  MIR: 53
  GUB cover: 8
  Zero half: 1
  Mod-K: 1

Explored 7999 nodes (173522 simplex iterations) in 2.20 seconds
Thread count was 4 (of 4 available processors)

Optimal solution found (tolerance 1.00e-04)
Best objective 3.292790000000e+03, best bound 3.292790000000e+03, gap 0.0%
k_c1	100.0
k_c2	99.0
k_c3	91.00000000000003
k_c4	8.0
k_c5	2.0
k_c6	96.00000000000003
k_c7	100.0
k_c8	96.0
k_dN	-0.0
o_1	1.0
o_2	-0.0
o_3	-0.0
o_4	-0.0
o_5	-0.0
o_6	-0.0
o_7	-0.0
o_8	-0.0
p_1	1.0000000000000107
p_2	0.0
p_3	0.0
p_4	0.0
p_5	1.0
p_6	0.0
p_7	-0.0
p_8	1.0
phi_c1	4.0
phi_c2	1.0
phi_c3	2.0
phi_c4	2.0
phi_c5	0.0
phi_c6	3.0000000000000013
phi_c7	3.0
phi_c8	-0.0
phi_dN	-0.0
pi_c1	11.00000000000001
pi_c2	-0.0
pi_c3	-0.0
pi_c4	-0.0
pi_c5	5.000000000000011
pi_c6	-0.0
pi_c7	-0.0
pi_c8	10.00000000000001
pi_dN	-0.0
tauD_c1	22.0
tauD_c2	20.0
tauD_c3	65.0
tauD_c4	65.0
tauD_c5	76.00000000000001
tauD_c6	44.99999999999999
tauD_c7	11.0
tauD_c8	42.0
tauD_d0	-0.0
tauD_dN	100.0
tauS_c1	3.0
tauS_c2	82.0
tauS_c3	5.0
tauS_c4	83.0
tauS_c5	60.0
tauS_c6	85.0
tauS_c7	-0.0
tauS_c8	39.0
tauS_d0	-0.0
tauS_dN	98.00000000000001
x_c1_c6	1.0
x_c2_c8	1.0
x_c3_dN	1.0
x_c4_c5	1.0
x_c5_dN	1.0
x_c6_c3	1.0
x_c7_c2	1.0
x_c8_c4	1.0
x_d0_c1	1.0
x_d0_c7	1.0
z_c1_c8	1.0
z_c5_dN	1.0
z_c8_c5	1.0
z_d0_c1	1.0
